(set-logic HORN)
(declare-fun state (Int (Array Int Int) (Array Int Int) (Array Int Int) (Array Int Int) Int Int (Array Int Int) (Array Int Int) Int Int Int Int Int Int Int Int Int Int Bool Bool Bool (Array Int Int) Int) Bool)
(assert (forall ((|A| Int) (|U| (Array Int Int)) (|C| (Array Int Int)) (|D| (Array Int Int)) (|E| (Array Int Int)) (|V| Int) (|G| Int) (|H| (Array Int Int)) (|I| (Array Int Int)) (|W| Int) (|K| Int) (|L| Int) (|M| Int) (|N| Int) (|O| Int) (|P| Int) (|Q| Int) (|R| Int) (|S| Int) (|T| Bool) (|.loc.3| Bool) (|.loc.4| Bool) (|U_0| (Array Int Int)) (|U_1| Int) (|.x.76| Int) (|.x.74| (Array Int Int)) (|.x.72| Int) (|.x.70| (Array Int Int)) (|.x.66| Int) (|.x.68| (Array Int Int)) (|.loc.5| Bool) (|.loc.6| Bool) (|.x.79| Int) (|.x.78| Int) (|.x.69| (Array Int Int)) (|.x.67| (Array Int Int)) (|.x.73| (Array Int Int)) (|.x.84| Int) (|.x.81| Int) (|.x.71| Int) (|.x.75| Int) (|T_3| Bool) (|.x.77| Int) (|.x.80| Int) (|.x.82| Int) (|.x.83| Int) (|.xtv.1| (Array Int Int)) (|.xtv.2| Int)) (=> (and (and (not .loc.4) (not .loc.3)) (and (and (and (and (and (= D E) (not T)) (= V G)) (= W K)) (= H I)) (= U C))) (state |A| |U| |C| |D| |E| |V| |G| |H| |I| |W| |K| |L| |M| |N| |O| |P| |Q| |R| |S| |T| |.loc.3| |.loc.4| |U_0| |U_1|))))
(assert (forall ((|A| Int) (|U| (Array Int Int)) (|C| (Array Int Int)) (|D| (Array Int Int)) (|E| (Array Int Int)) (|V| Int) (|G| Int) (|H| (Array Int Int)) (|I| (Array Int Int)) (|W| Int) (|K| Int) (|L| Int) (|M| Int) (|N| Int) (|O| Int) (|P| Int) (|Q| Int) (|R| Int) (|S| Int) (|T| Bool) (|.loc.3| Bool) (|.loc.4| Bool) (|U_0| (Array Int Int)) (|U_1| Int) (|.x.76| Int) (|.x.74| (Array Int Int)) (|.x.72| Int) (|.x.70| (Array Int Int)) (|.x.66| Int) (|.x.68| (Array Int Int)) (|.loc.5| Bool) (|.loc.6| Bool) (|.x.79| Int) (|.x.78| Int) (|.x.69| (Array Int Int)) (|.x.67| (Array Int Int)) (|.x.73| (Array Int Int)) (|.x.84| Int) (|.x.81| Int) (|.x.71| Int) (|.x.75| Int) (|T_3| Bool) (|.x.77| Int) (|.x.80| Int) (|.x.82| Int) (|.x.83| Int) (|.xtv.1| (Array Int Int)) (|.xtv.2| Int)) (=> (and (state |A| |U| |C| |D| |E| |V| |G| |H| |I| |W| |K| |L| |M| |N| |O| |P| |Q| |R| |S| |T| |.loc.3| |.loc.4| |U_0| |U_1|) (let ((.def_35 (not .loc.3))) (let ((.def_72 (= U_1 0))) (let ((.def_76 (select D .x.79))) (let ((.def_78 (select .def_76 .x.78))) (let ((.def_117 (and (= (store D .x.79 (store .def_76 .x.78 (+ .def_78 (- 4)))) .x.69) (and (= (store U_0 .x.79 1) .x.67) (and (= (store H .x.79 4) .x.73) (and (= .def_78 4) (and (= (select U_0 .x.79) 0) (and (= .x.78 0) (and (not (= .x.79 0)) (and (= .x.78 .x.84) (and (= U_1 (select (select .x.69 .x.81) .x.84)) (and (= .x.79 .x.81) (not (<= .x.66 .x.79)))))))))))))) (let ((.def_127 (or T (and (= U_0 (store U 0 0)) (and (= .x.71 0) (= .x.75 0)))))) (let ((.def_131 (= L .x.77))) (let ((.def_155 (= T T_3))) (let ((.def_174 (not .loc.6))) (and (and (not .loc.4) (and (= K .x.76) (and (= I .x.74) (and (= G .x.72) (and (= E .x.70) (and (= A .x.66) (= C .x.68))))))) (or (or (and (and (not .loc.5) .loc.6) (or (and .def_35 (and (or T (not .def_72)) (and (or T .def_117) (and (and .def_127 T_3) .def_131)))) (and (or T (and (= .x.80 0) (= .x.67 (store U N 0)))) (and (= D .x.69) (and (= V .x.71) (and (= H .x.73) (and (= W .x.75) (and (= P .x.81) (and (= Q .x.82) (and (= R .x.83) (and (= S .x.84) (and (and .loc.3 (or T_3 (= .x.77 .x.80))) .def_155)))))))))))) (and (or .def_117 T_3) (and (or .def_72 T_3) (and (and .def_155 (and .loc.5 (and .def_35 (and .def_127 .def_131)))) .def_174)))) (and .def_174 (and .loc.5 (and .def_35 (and .def_131 (and .def_127 (and T T_3)))))))))))))))))) (state |.x.66| |.x.67| |.x.68| |.x.69| |.x.70| |.x.71| |.x.72| |.x.73| |.x.74| |.x.75| |.x.76| |.x.77| |.x.78| |.x.79| |.x.80| |.x.81| |.x.82| |.x.83| |.x.84| |T_3| |.loc.5| |.loc.6| |.xtv.1| |.xtv.2|))))
(assert (forall ((|A| Int) (|U| (Array Int Int)) (|C| (Array Int Int)) (|D| (Array Int Int)) (|E| (Array Int Int)) (|V| Int) (|G| Int) (|H| (Array Int Int)) (|I| (Array Int Int)) (|W| Int) (|K| Int) (|L| Int) (|M| Int) (|N| Int) (|O| Int) (|P| Int) (|Q| Int) (|R| Int) (|S| Int) (|T| Bool) (|.loc.3| Bool) (|.loc.4| Bool) (|U_0| (Array Int Int)) (|U_1| Int) (|.x.76| Int) (|.x.74| (Array Int Int)) (|.x.72| Int) (|.x.70| (Array Int Int)) (|.x.66| Int) (|.x.68| (Array Int Int)) (|.loc.5| Bool) (|.loc.6| Bool) (|.x.79| Int) (|.x.78| Int) (|.x.69| (Array Int Int)) (|.x.67| (Array Int Int)) (|.x.73| (Array Int Int)) (|.x.84| Int) (|.x.81| Int) (|.x.71| Int) (|.x.75| Int) (|T_3| Bool) (|.x.77| Int) (|.x.80| Int) (|.x.82| Int) (|.x.83| Int) (|.xtv.1| (Array Int Int)) (|.xtv.2| Int)) (=> (state |A| |U| |C| |D| |E| |V| |G| |H| |I| |W| |K| |L| |M| |N| |O| |P| |Q| |R| |S| |T| |.loc.3| |.loc.4| |U_0| |U_1|) (not (and T (and .loc.4 (not .loc.3)))))))
(check-sat)
